(set-info :smt-lib-version 2.6)
(set-logic LIA)
(set-info
  :source |
 Generated by PSyCO 0.1
 More info in N. P. Lopes and J. Monteiro. Weakest Precondition Synthesis for
 Compiler Optimizations, VMCAI'14.
|)
(set-info :category "industrial")
(set-info :status sat)
(declare-fun W_S2_V1 () Bool)
(declare-fun W_S2_V3 () Bool)
(declare-fun W_S2_V2 () Bool)
(declare-fun W_S2_V5 () Bool)
(declare-fun W_S1_V1 () Bool)
(declare-fun W_S1_V2 () Bool)
(declare-fun W_S1_V5 () Bool)
(declare-fun W_S1_V4 () Bool)
(declare-fun R_S1_V1 () Bool)
(declare-fun R_S1_V3 () Bool)
(declare-fun R_S1_V2 () Bool)
(declare-fun R_S1_V5 () Bool)
(declare-fun R_S1_V4 () Bool)
(declare-fun R_S2_V1 () Bool)
(declare-fun R_S2_V3 () Bool)
(declare-fun R_S2_V2 () Bool)
(declare-fun R_S2_V5 () Bool)
(declare-fun R_S2_V4 () Bool)
(declare-fun DISJ_W_S2_R_S2 () Bool)
(declare-fun DISJ_W_S2_R_S1 () Bool)
(declare-fun DISJ_W_S1_W_S2 () Bool)
(declare-fun DISJ_W_S1_R_S2 () Bool)
(declare-fun DISJ_W_S1_R_S1 () Bool)
(declare-fun W_S2_V4 () Bool)
(declare-fun W_S1_V3 () Bool)
(assert
 (let
 (($x1841
   (forall
    ((V4_0 Int) (V5_0 Int) 
     (V2_0 Int) (V3_0 Int) 
     (V1_0 Int) (MW_S1_V4 Bool) 
     (MW_S1_V5 Bool) (MW_S1_V2 Bool) 
     (MW_S1_V3 Bool) (MW_S1_V1 Bool) 
     (MW_S2_V4 Bool) (MW_S2_V5 Bool) 
     (MW_S2_V2 Bool) (MW_S2_V3 Bool) 
     (MW_S2_V1 Bool) (S1_V4_!160 Int) 
     (S1_V4_!170 Int) (S1_V4_!180 Int) 
     (S2_V4_!165 Int) (S2_V4_!175 Int) 
     (S2_V4_!185 Int) (S2_V5_!166 Int) 
     (S2_V5_!176 Int) (S2_V5_!186 Int) 
     (S1_V1_!164 Int) (S1_V1_!174 Int) 
     (S1_V1_!184 Int) (S1_V3_!163 Int) 
     (S1_V3_!173 Int) (S1_V3_!183 Int) 
     (S1_V2_!162 Int) (S1_V2_!172 Int) 
     (S1_V2_!182 Int) (S2_V1_!169 Int) 
     (S2_V1_!179 Int) (S2_V1_!189 Int) 
     (S2_V2_!167 Int) (S2_V2_!177 Int) 
     (S2_V2_!187 Int) (S2_V3_!168 Int) 
     (S2_V3_!178 Int) (S2_V3_!188 Int) 
     (S1_V5_!161 Int) (S1_V5_!171 Int) 
     (S1_V5_!181 Int))
    (let ((?x1580 (ite MW_S1_V1 S1_V1_!174 V1_0)))
    (let ((?x1581 (ite MW_S2_V1 S2_V1_!179 ?x1580)))
    (let ((?x1582 (+ 1 ?x1581)))
    (let ((?x1583 (ite MW_S1_V1 S1_V1_!184 ?x1582)))
    (let ((?x1584 (ite MW_S2_V1 S2_V1_!189 ?x1583)))
    (let ((?x1586 (ite MW_S1_V1 S1_V1_!164 V1_0)))
    (let ((?x1587 (ite MW_S2_V1 S2_V1_!169 ?x1586)))
    (let (($x1833 (= ?x1587 ?x1584)))
    (let ((?x1589 (ite MW_S1_V3 S1_V3_!173 V3_0)))
    (let ((?x1590 (ite MW_S2_V3 S2_V3_!178 ?x1589)))
    (let ((?x1591 (ite MW_S1_V3 S1_V3_!183 ?x1590)))
    (let ((?x1592 (ite MW_S2_V3 S2_V3_!188 ?x1591)))
    (let ((?x1593 (ite MW_S1_V3 S1_V3_!163 V3_0)))
    (let ((?x1594 (ite MW_S2_V3 S2_V3_!168 ?x1593)))
    (let (($x1595 (= ?x1594 ?x1592)))
    (let ((?x1596 (ite MW_S1_V2 S1_V2_!172 V2_0)))
    (let ((?x1597 (ite MW_S2_V2 S2_V2_!177 ?x1596)))
    (let ((?x1598 (ite MW_S1_V2 S1_V2_!182 ?x1597)))
    (let ((?x1599 (ite MW_S2_V2 S2_V2_!187 ?x1598)))
    (let ((?x1600 (ite MW_S1_V2 S1_V2_!162 V2_0)))
    (let ((?x1601 (ite MW_S2_V2 S2_V2_!167 ?x1600)))
    (let (($x1602 (= ?x1601 ?x1599)))
    (let ((?x1603 (ite MW_S1_V5 S1_V5_!171 V5_0)))
    (let ((?x1604 (ite MW_S2_V5 S2_V5_!176 ?x1603)))
    (let ((?x1605 (ite MW_S1_V5 S1_V5_!181 ?x1604)))
    (let ((?x1606 (ite MW_S2_V5 S2_V5_!186 ?x1605)))
    (let ((?x1607 (ite MW_S1_V5 S1_V5_!161 V5_0)))
    (let ((?x1608 (ite MW_S2_V5 S2_V5_!166 ?x1607)))
    (let (($x1609 (= ?x1608 ?x1606)))
    (let ((?x1610 (ite MW_S1_V4 S1_V4_!170 V4_0)))
    (let ((?x1611 (ite MW_S2_V4 S2_V4_!175 ?x1610)))
    (let ((?x1612 (ite MW_S1_V4 S1_V4_!180 ?x1611)))
    (let ((?x1613 (ite MW_S2_V4 S2_V4_!185 ?x1612)))
    (let ((?x1614 (ite MW_S1_V4 S1_V4_!160 V4_0)))
    (let ((?x1615 (ite MW_S2_V4 S2_V4_!165 ?x1614)))
    (let (($x1616 (= ?x1615 ?x1613)))
    (let (($x1834 (and $x1616 $x1609 $x1602 $x1595 $x1833)))
    (let ((?x1618 (+ (- 1) ?x1598)))
    (let (($x1619 (>= ?x1583 ?x1618)))
    (let ((?x1620 (+ 1 ?x1580)))
    (let (($x1621 (<= ?x1596 ?x1620)))
    (let (($x1622 (not $x1621)))
    (let ((?x1623 (+ (- 1) ?x1601)))
    (let (($x1624 (>= ?x1587 ?x1623)))
    (let (($x1625 (<= V2_0 V1_0)))
    (let (($x1626 (not $x1625)))
    (let (($x1627 (and $x1626 $x1624 $x1622 $x1619)))
    (let (($x1628 (not $x1627)))
    (let (($x1630 (not MW_S2_V1)))
    (let (($x1631 (or $x1630 W_S2_V1)))
    (let (($x1632 (not MW_S2_V3)))
    (let (($x1633 (or $x1632 W_S2_V3)))
    (let (($x1634 (not MW_S2_V2)))
    (let (($x1635 (or $x1634 W_S2_V2)))
    (let (($x1636 (not MW_S2_V5)))
    (let (($x1637 (or $x1636 W_S2_V5)))
    (let (($x1640 (not MW_S1_V1)))
    (let (($x1641 (or $x1640 W_S1_V1)))
    (let (($x1644 (not MW_S1_V2)))
    (let (($x1645 (or $x1644 W_S1_V2)))
    (let (($x1646 (not MW_S1_V5)))
    (let (($x1647 (or $x1646 W_S1_V5)))
    (let (($x1648 (not MW_S1_V4)))
    (let (($x1649 (or $x1648 W_S1_V4)))
    (let (($x1651 (= S1_V5_!181 S1_V5_!171)))
    (let ((?x1652 (+ (- 1) V1_0)))
    (let (($x1653 (= ?x1581 ?x1652)))
    (let (($x166 (not R_S1_V1)))
    (let (($x1654 (or $x166 $x1653)))
    (let (($x1655 (= ?x1590 V3_0)))
    (let (($x164 (not R_S1_V3)))
    (let (($x1656 (or $x164 $x1655)))
    (let (($x1657 (= ?x1597 V2_0)))
    (let (($x162 (not R_S1_V2)))
    (let (($x1658 (or $x162 $x1657)))
    (let (($x1659 (= ?x1604 V5_0)))
    (let (($x160 (not R_S1_V5)))
    (let (($x1660 (or $x160 $x1659)))
    (let (($x1661 (= ?x1611 V4_0)))
    (let (($x158 (not R_S1_V4)))
    (let (($x1662 (or $x158 $x1661)))
    (let (($x1663 (and $x1662 $x1660 $x1658 $x1656 $x1654)))
    (let (($x1664 (not $x1663)))
    (let (($x1665 (or $x1664 $x1651)))
    (let (($x1666 (= S1_V5_!161 S1_V5_!181)))
    (let (($x1667 (= V1_0 ?x1582)))
    (let (($x1668 (or $x166 $x1667)))
    (let (($x1669 (= V3_0 ?x1590)))
    (let (($x1670 (or $x164 $x1669)))
    (let (($x1671 (= V2_0 ?x1597)))
    (let (($x1672 (or $x162 $x1671)))
    (let (($x1673 (= V5_0 ?x1604)))
    (let (($x1674 (or $x160 $x1673)))
    (let (($x1675 (= V4_0 ?x1611)))
    (let (($x1676 (or $x158 $x1675)))
    (let (($x1677 (and $x1676 $x1674 $x1672 $x1670 $x1668)))
    (let (($x1678 (not $x1677)))
    (let (($x1679 (or $x1678 $x1666)))
    (let (($x1680 (= S1_V5_!161 S1_V5_!171)))
    (let (($x1681 (= S2_V3_!188 S2_V3_!168)))
    (let (($x1811 (= ?x1583 ?x1586)))
    (let (($x179 (not R_S2_V1)))
    (let (($x1812 (or $x179 $x1811)))
    (let (($x1686 (= ?x1591 ?x1593)))
    (let (($x177 (not R_S2_V3)))
    (let (($x1687 (or $x177 $x1686)))
    (let (($x1688 (= ?x1598 ?x1600)))
    (let (($x175 (not R_S2_V2)))
    (let (($x1689 (or $x175 $x1688)))
    (let (($x1690 (= ?x1605 ?x1607)))
    (let (($x173 (not R_S2_V5)))
    (let (($x1691 (or $x173 $x1690)))
    (let (($x1692 (= ?x1612 ?x1614)))
    (let (($x171 (not R_S2_V4)))
    (let (($x1693 (or $x171 $x1692)))
    (let (($x1813 (and $x1693 $x1691 $x1689 $x1687 $x1812)))
    (let (($x1814 (not $x1813)))
    (let (($x1831 (or $x1814 $x1681)))
    (let (($x1697 (= S2_V3_!178 S2_V3_!188)))
    (let (($x1317 (= ?x1580 ?x1583)))
    (let (($x1323 (or $x179 $x1317)))
    (let (($x1700 (= ?x1589 ?x1591)))
    (let (($x1701 (or $x177 $x1700)))
    (let (($x1702 (= ?x1596 ?x1598)))
    (let (($x1703 (or $x175 $x1702)))
    (let (($x1704 (= ?x1603 ?x1605)))
    (let (($x1705 (or $x173 $x1704)))
    (let (($x1706 (= ?x1610 ?x1612)))
    (let (($x1707 (or $x171 $x1706)))
    (let (($x1426 (and $x1707 $x1705 $x1703 $x1701 $x1323)))
    (let (($x1809 (not $x1426)))
    (let (($x1830 (or $x1809 $x1697)))
    (let (($x1711 (= S2_V3_!178 S2_V3_!168)))
    (let (($x1712 (= ?x1580 ?x1586)))
    (let (($x1713 (or $x179 $x1712)))
    (let (($x1714 (= ?x1589 ?x1593)))
    (let (($x1715 (or $x177 $x1714)))
    (let (($x1716 (= ?x1596 ?x1600)))
    (let (($x1717 (or $x175 $x1716)))
    (let (($x1718 (= ?x1603 ?x1607)))
    (let (($x1719 (or $x173 $x1718)))
    (let (($x1720 (= ?x1610 ?x1614)))
    (let (($x1721 (or $x171 $x1720)))
    (let (($x1722 (and $x1721 $x1719 $x1717 $x1715 $x1713)))
    (let (($x1723 (not $x1722)))
    (let (($x1724 (or $x1723 $x1711)))
    (let (($x1725 (= S2_V2_!187 S2_V2_!177)))
    (let (($x1821 (= ?x1583 ?x1580)))
    (let (($x1822 (or $x179 $x1821)))
    (let (($x1728 (= ?x1591 ?x1589)))
    (let (($x1729 (or $x177 $x1728)))
    (let (($x1730 (= ?x1598 ?x1596)))
    (let (($x1731 (or $x175 $x1730)))
    (let (($x1732 (= ?x1605 ?x1603)))
    (let (($x1733 (or $x173 $x1732)))
    (let (($x1734 (= ?x1612 ?x1610)))
    (let (($x1735 (or $x171 $x1734)))
    (let (($x1823 (and $x1735 $x1733 $x1731 $x1729 $x1822)))
    (let (($x1824 (not $x1823)))
    (let (($x1829 (or $x1824 $x1725)))
    (let (($x1739 (= S2_V2_!187 S2_V2_!167)))
    (let (($x1828 (or $x1814 $x1739)))
    (let (($x1741 (= S2_V2_!177 S2_V2_!167)))
    (let (($x1742 (or $x1723 $x1741)))
    (let (($x1743 (= S2_V1_!189 S2_V1_!179)))
    (let (($x1827 (or $x1824 $x1743)))
    (let (($x1745 (= S2_V1_!169 S2_V1_!189)))
    (let (($x1816 (= ?x1586 ?x1583)))
    (let (($x1817 (or $x179 $x1816)))
    (let (($x1748 (= ?x1593 ?x1591)))
    (let (($x1749 (or $x177 $x1748)))
    (let (($x1750 (= ?x1600 ?x1598)))
    (let (($x1751 (or $x175 $x1750)))
    (let (($x1752 (= ?x1607 ?x1605)))
    (let (($x1753 (or $x173 $x1752)))
    (let (($x1754 (= ?x1614 ?x1612)))
    (let (($x1755 (or $x171 $x1754)))
    (let (($x1818 (and $x1755 $x1753 $x1751 $x1749 $x1817)))
    (let (($x1819 (not $x1818)))
    (let (($x1826 (or $x1819 $x1745)))
    (let (($x1759 (= S2_V1_!169 S2_V1_!179)))
    (let (($x1760 (= ?x1586 ?x1580)))
    (let (($x1761 (or $x179 $x1760)))
    (let (($x1762 (= ?x1593 ?x1589)))
    (let (($x1763 (or $x177 $x1762)))
    (let (($x1764 (= ?x1600 ?x1596)))
    (let (($x1765 (or $x175 $x1764)))
    (let (($x1766 (= ?x1607 ?x1603)))
    (let (($x1767 (or $x173 $x1766)))
    (let (($x1768 (= ?x1614 ?x1610)))
    (let (($x1769 (or $x171 $x1768)))
    (let (($x1770 (and $x1769 $x1767 $x1765 $x1763 $x1761)))
    (let (($x1771 (not $x1770)))
    (let (($x1772 (or $x1771 $x1759)))
    (let (($x1773 (= S1_V2_!172 S1_V2_!182)))
    (let (($x1774 (or $x1678 $x1773)))
    (let (($x1775 (= S1_V2_!162 S1_V2_!182)))
    (let (($x1776 (or $x1678 $x1775)))
    (let (($x1777 (= S1_V2_!162 S1_V2_!172)))
    (let (($x1778 (= S1_V3_!173 S1_V3_!183)))
    (let (($x1779 (or $x1678 $x1778)))
    (let (($x1780 (= S1_V3_!163 S1_V3_!183)))
    (let (($x1781 (or $x1678 $x1780)))
    (let (($x1782 (= S1_V3_!163 S1_V3_!173)))
    (let (($x1783 (= S1_V1_!184 S1_V1_!174)))
    (let (($x1784 (or $x1664 $x1783)))
    (let (($x1785 (= S1_V1_!184 S1_V1_!164)))
    (let (($x1786 (or $x1664 $x1785)))
    (let (($x1787 (= S1_V1_!164 S1_V1_!174)))
    (let (($x1788 (= S2_V5_!186 S2_V5_!176)))
    (let (($x1825 (or $x1824 $x1788)))
    (let (($x1790 (= S2_V5_!166 S2_V5_!186)))
    (let (($x1820 (or $x1819 $x1790)))
    (let (($x1792 (= S2_V5_!166 S2_V5_!176)))
    (let (($x1793 (or $x1771 $x1792)))
    (let (($x1794 (= S2_V4_!185 S2_V4_!165)))
    (let (($x1815 (or $x1814 $x1794)))
    (let (($x1796 (= S2_V4_!175 S2_V4_!185)))
    (let (($x1810 (or $x1809 $x1796)))
    (let (($x1798 (= S2_V4_!175 S2_V4_!165)))
    (let (($x1799 (or $x1723 $x1798)))
    (let (($x1800 (= S1_V4_!170 S1_V4_!180)))
    (let (($x1801 (or $x1678 $x1800)))
    (let (($x1802 (= S1_V4_!160 S1_V4_!180)))
    (let (($x1803 (or $x1678 $x1802)))
    (let (($x1804 (= S1_V4_!160 S1_V4_!170)))
    (let
    (($x1838
      (and $x1804 $x1803 $x1801 $x1799 $x1810 $x1815 $x1793 $x1820 $x1825
      $x1787 $x1786 $x1784 $x1782 $x1781 $x1779 $x1777 $x1776 $x1774 $x1772
      $x1826 $x1827 $x1742 $x1828 $x1829 $x1724 $x1830 $x1831 $x1680 $x1679
      $x1665 $x1649 $x1647 $x1645 $x1641 $x1637 $x1635 $x1633 $x1631)))
    (let (($x1839 (not $x1838))) (or $x1839 $x1628 $x1834))))))))))))))))))))))))))))))))))))))))))))))))))))))))))))))))))))))))))))))))))))))))))))))))))))))))))))))))))))))))))))))))))))))))))))))))))))))))))))))))))))))))))))))))))))))))))))))))))))))))))))))))))))))))))))))))))))))))
 (let (($x68 (and W_S2_V1 R_S2_V1)))
 (let (($x67 (and W_S2_V3 R_S2_V3)))
 (let (($x66 (and W_S2_V2 R_S2_V2)))
 (let (($x65 (and W_S2_V5 R_S2_V5)))
 (let (($x87 (or R_S2_V4 $x65 $x66 $x67 $x68)))
 (let (($x88 (not $x87)))
 (let (($x89 (= DISJ_W_S2_R_S2 $x88)))
 (let (($x59 (and W_S2_V1 R_S1_V1)))
 (let (($x58 (and W_S2_V3 R_S1_V3)))
 (let (($x57 (and W_S2_V2 R_S1_V2)))
 (let (($x56 (and W_S2_V5 R_S1_V5)))
 (let (($x84 (or R_S1_V4 $x56 $x57 $x58 $x59)))
 (let (($x85 (not $x84)))
 (let (($x86 (= DISJ_W_S2_R_S1 $x85)))
 (let (($x50 (and W_S1_V1 W_S2_V1)))
 (let (($x46 (and W_S1_V2 W_S2_V2)))
 (let (($x44 (and W_S1_V5 W_S2_V5)))
 (let (($x81 (or W_S1_V4 $x44 $x46 W_S2_V3 $x50)))
 (let (($x82 (not $x81)))
 (let (($x83 (= DISJ_W_S1_W_S2 $x82)))
 (let (($x37 (and W_S1_V1 R_S2_V1)))
 (let (($x33 (and W_S1_V2 R_S2_V2)))
 (let (($x31 (and W_S1_V5 R_S2_V5)))
 (let (($x29 (and W_S1_V4 R_S2_V4)))
 (let (($x78 (or $x29 $x31 $x33 R_S2_V3 $x37)))
 (let (($x79 (not $x78)))
 (let (($x80 (= DISJ_W_S1_R_S2 $x79)))
 (let (($x23 (and W_S1_V1 R_S1_V1)))
 (let (($x18 (and W_S1_V2 R_S1_V2)))
 (let (($x15 (and W_S1_V5 R_S1_V5)))
 (let (($x12 (and W_S1_V4 R_S1_V4)))
 (let (($x75 (or $x12 $x15 $x18 R_S1_V3 $x23)))
 (let (($x76 (not $x75)))
 (let (($x77 (= DISJ_W_S1_R_S1 $x76)))
 (and W_S1_V3 W_S2_V4 $x77 $x80 $x83 $x86 $x89 $x1841)))))))))))))))))))))))))))))))))))))
(assert
 (let (($x1116 (not W_S2_V2)))
 (let (($x2290 (and $x1116 DISJ_W_S2_R_S1 DISJ_W_S2_R_S2 DISJ_W_S1_R_S1)))
 (not $x2290))))
(check-sat)
(exit)

